NAME : single.9289.tour
COMMENT : Length = 9289
COMMENT : Found by LKH [Keld Helsgaun] Wed Oct 15 01:28:00 2025
TYPE : TOUR
DIMENSION : 24
TOUR_SECTION
1
19
21
23
20
22
6
5
4
7
8
3
2
18
16
17
24
15
14
12
13
9
11
10
-1
EOF
